# Solution for model ParcelSelct
# Objective value = 290.626
parcel[1] 0
parcel[2] 0
parcel[3] 0
parcel[4] 0
parcel[5] 0
parcel[6] 0
parcel[7] 0
parcel[8] 0
parcel[9] 0
parcel[10] 0
parcel[11] 0
parcel[12] 0
parcel[13] 0
parcel[14] 1
parcel[15] 0
parcel[16] 0
parcel[17] 0
parcel[18] 0
parcel[19] 1
parcel[20] 0
parcel[21] 0
parcel[22] 0
parcel[23] 1
parcel[24] 0
parcel[25] 0
parcel[26] 1
parcel[27] 1
parcel[28] 1
parcel[29] 1
parcel[30] 0
parcel[31] 1
parcel[32] 0
parcel[33] 1
parcel[34] 0
parcel[35] 0
parcel[36] 0
parcel[37] 1
parcel[38] 1
parcel[39] 0
parcel[40] 0
parcel[41] 0
parcel[42] 0
parcel[43] 0
parcel[44] 0
parcel[45] 0
parcel[46] 0
parcel[47] 0
parcel[48] 0
parcel[49] 0
parcel[50] 0
parcel[51] 0
parcel[52] 0
parcel[53] 0
parcel[54] 0
parcel[55] 0
parcel[56] 0
parcel[57] 0
parcel[58] 0
parcel[59] 0
parcel[60] 0
parcel[61] 0
parcel[62] 0
parcel[63] 0
parcel[64] 0
parcel[65] 0
parcel[66] 0
parcel[67] 0
parcel[68] 0
parcel[69] 0
parcel[70] 0
parcel[71] 0
parcel[72] 0
parcel[73] 0
parcel[74] 0
parcel[75] 0
parcel[76] 0
parcel[77] 1
parcel[78] 1
parcel[79] 1
parcel[80] 0
parcel[81] 1
parcel[82] 0
parcel[83] 0
parcel[84] 0
parcel[85] 0
parcel[86] 1
parcel[87] 0
parcel[88] 0
parcel[89] 0
parcel[90] 0
parcel[91] 0
parcel[92] 0
parcel[93] 0
parcel[94] 0
parcel[95] 0
parcel[96] 0
parcel[97] 0
parcel[98] 0
parcel[99] 0
parcel[100] 0
parcel[101] 0
parcel[102] 0
parcel[103] 0
parcel[104] 0
parcel[105] 0
parcel[106] 0
parcel[107] 0
parcel[108] 0
parcel[109] 0
parcel[110] 0
parcel[111] 0
parcel[112] 0
parcel[113] 0
parcel[114] 0
parcel[115] 0
parcel[116] 0
parcel[117] 0
parcel[118] 0
parcel[119] 0
parcel[120] 0
flow[2,51] 0
flow[3,50] 0
flow[3,55] 0
flow[3,60] 0
flow[4,5] 0
flow[4,6] 0
flow[4,48] 0
flow[5,4] 0
flow[5,54] 0
flow[6,4] 0
flow[6,47] 0
flow[6,56] 0
flow[7,57] 0
flow[7,58] 0
flow[8,60] 0
flow[8,66] 0
flow[8,68] 0
flow[10,13] 0
flow[12,63] 0
flow[12,73] 0
flow[13,10] 0
flow[13,16] 0
flow[14,17] 0
flow[14,19] 1
flow[14,21] 0
flow[14,22] 0
flow[14,24] 0
flow[15,17] 0
flow[15,18] 0
flow[15,23] 0
flow[15,75] 0
flow[16,13] 0
flow[16,20] 0
flow[16,76] 0
flow[17,14] 0
flow[17,15] 0
flow[17,19] 0
flow[17,23] 0
flow[17,64] 0
flow[18,15] 0
flow[18,73] 0
flow[18,75] 0
flow[19,14] 0
flow[19,17] 0
flow[19,22] 0
flow[19,23] 1
flow[20,16] 0
flow[20,76] 0
flow[21,14] 0
flow[22,14] 0
flow[22,19] 0
flow[22,23] 0
flow[22,24] 0
flow[23,15] 0
flow[23,17] 0
flow[23,19] 0
flow[23,22] 0
flow[23,26] 1
flow[23,27] 0
flow[23,75] 0
flow[24,14] 0
flow[24,22] 0
flow[25,77] 0
flow[25,78] 0
flow[26,23] 0
flow[26,27] 1
flow[27,23] 0
flow[27,26] 0
flow[27,28] 1
flow[27,32] 0
flow[27,75] 0
flow[28,27] 0
flow[28,31] 1
flow[28,32] 0
flow[28,33] 0
flow[29,31] 1
flow[29,76] 0
flow[31,28] 0
flow[31,29] 0
flow[31,33] 0
flow[31,35] 0
flow[31,37] 0
flow[31,76] 0
flow[32,27] 0
flow[32,28] 0
flow[32,33] 0
flow[32,38] 0
flow[33,28] 0
flow[33,31] 1
flow[33,32] 0
flow[33,35] 0
flow[33,38] 0
flow[33,82] 0
flow[34,91] 0
flow[35,31] 0
flow[35,33] 0
flow[35,37] 0
flow[35,82] 0
flow[36,37] 0
flow[36,76] 0
flow[36,78] 0
flow[36,79] 0
flow[37,31] 1
flow[37,35] 0
flow[37,36] 0
flow[37,76] 0
flow[37,79] 0
flow[37,82] 0
flow[38,32] 0
flow[38,33] 1
flow[39,80] 0
flow[39,83] 0
flow[40,79] 0
flow[40,84] 0
flow[40,86] 0
flow[42,88] 0
flow[45,47] 0
flow[45,49] 0
flow[46,47] 0
flow[46,48] 0
flow[47,6] 0
flow[47,45] 0
flow[47,46] 0
flow[47,48] 0
flow[48,4] 0
flow[48,46] 0
flow[48,47] 0
flow[49,45] 0
flow[49,51] 0
flow[49,56] 0
flow[50,3] 0
flow[50,55] 0
flow[51,2] 0
flow[51,49] 0
flow[53,54] 0
flow[54,5] 0
flow[54,53] 0
flow[55,3] 0
flow[55,50] 0
flow[55,60] 0
flow[56,6] 0
flow[56,49] 0
flow[56,63] 0
flow[57,7] 0
flow[57,58] 0
flow[58,7] 0
flow[58,57] 0
flow[58,59] 0
flow[58,64] 0
flow[59,58] 0
flow[59,64] 0
flow[60,3] 0
flow[60,8] 0
flow[60,55] 0
flow[60,65] 0
flow[60,66] 0
flow[60,68] 0
flow[62,65] 0
flow[62,67] 0
flow[62,72] 0
flow[63,12] 0
flow[63,56] 0
flow[63,64] 0
flow[64,17] 0
flow[64,58] 0
flow[64,59] 0
flow[64,63] 0
flow[65,60] 0
flow[65,62] 0
flow[65,67] 0
flow[65,68] 0
flow[66,8] 0
flow[66,60] 0
flow[67,62] 0
flow[67,65] 0
flow[68,8] 0
flow[68,60] 0
flow[68,65] 0
flow[70,71] 0
flow[70,72] 0
flow[71,70] 0
flow[71,96] 0
flow[72,62] 0
flow[72,70] 0
flow[73,12] 0
flow[73,18] 0
flow[73,75] 0
flow[74,91] 0
flow[75,15] 0
flow[75,18] 0
flow[75,23] 0
flow[75,27] 0
flow[75,73] 0
flow[76,16] 0
flow[76,20] 0
flow[76,29] 0
flow[76,31] 0
flow[76,36] 0
flow[76,37] 0
flow[76,77] 0
flow[76,78] 0
flow[77,25] 0
flow[77,76] 0
flow[77,78] 1
flow[78,25] 0
flow[78,36] 0
flow[78,76] 0
flow[78,77] 0
flow[78,79] 1
flow[79,36] 0
flow[79,37] 1
flow[79,40] 0
flow[79,78] 0
flow[79,81] 0
flow[79,82] 0
flow[79,84] 0
flow[79,86] 0
flow[80,39] 0
flow[80,83] 0
flow[80,98] 0
flow[81,79] 1
flow[81,84] 0
flow[81,86] 0
flow[82,33] 0
flow[82,35] 0
flow[82,37] 0
flow[82,79] 0
flow[83,39] 0
flow[83,80] 0
flow[84,40] 0
flow[84,79] 0
flow[84,81] 0
flow[84,86] 0
flow[85,87] 0
flow[86,40] 0
flow[86,79] 0
flow[86,81] 1
flow[86,84] 0
flow[86,88] 0
flow[87,85] 0
flow[88,42] 0
flow[88,86] 0
flow[89,90] 0
flow[90,89] 0
flow[90,100] 0
flow[91,34] 0
flow[91,74] 0
flow[92,93] 0
flow[92,94] 0
flow[93,92] 0
flow[94,92] 0
flow[96,71] 0
flow[96,98] 0
flow[97,99] 0
flow[98,80] 0
flow[98,96] 0
flow[98,99] 0
flow[99,97] 0
flow[99,98] 0
flow[100,90] 0
Z[2,51] 0
Z[3,50] 0
Z[3,55] 120
Z[3,60] 0
Z[4,5] 0
Z[4,6] 0
Z[4,48] 0
Z[5,4] 0
Z[5,54] 0
Z[6,4] 0
Z[6,47] 120
Z[6,56] 0
Z[7,57] 0
Z[7,58] 0
Z[8,60] 120
Z[8,66] 120
Z[8,68] 0
Z[10,13] 120
Z[12,63] 0
Z[12,73] 120
Z[13,10] 240
Z[13,16] 0
Z[14,17] 0
Z[14,19] 1
Z[14,21] 120
Z[14,22] 0
Z[14,24] 0
Z[15,17] 0
Z[15,18] 0
Z[15,23] 0
Z[15,75] 0
Z[16,13] 0
Z[16,20] 0
Z[16,76] 0
Z[17,14] 0
Z[17,15] 0
Z[17,19] 0
Z[17,23] 0
Z[17,64] 0
Z[18,15] 0
Z[18,73] 0
Z[18,75] 0
Z[19,14] 0
Z[19,17] 0
Z[19,22] 0
Z[19,23] 2
Z[20,16] 0
Z[20,76] 0
Z[21,14] 0
Z[22,14] 0
Z[22,19] 0
Z[22,23] 0
Z[22,24] 0
Z[23,15] 0
Z[23,17] 0
Z[23,19] 0
Z[23,22] 0
Z[23,26] 3
Z[23,27] 0
Z[23,75] 0
Z[24,14] 0
Z[24,22] 0
Z[25,77] 0
Z[25,78] 0
Z[26,23] 0
Z[26,27] 4
Z[27,23] 0
Z[27,26] 0
Z[27,28] 6
Z[27,32] 0
Z[27,75] 0
Z[28,27] 0
Z[28,31] 7
Z[28,32] 0
Z[28,33] 0
Z[29,31] 1
Z[29,76] 0
Z[31,28] 0
Z[31,29] 0
Z[31,33] 0
Z[31,35] 0
Z[31,37] 0
Z[31,76] 0
Z[32,27] 0
Z[32,28] 0
Z[32,33] 0
Z[32,38] 0
Z[33,28] 0
Z[33,31] 2
Z[33,32] 0
Z[33,35] 0
Z[33,38] 0
Z[33,82] 0
Z[34,91] 0
Z[35,31] 0
Z[35,33] 0
Z[35,37] 0
Z[35,82] 119
Z[36,37] 0
Z[36,76] 0
Z[36,78] 0
Z[36,79] 0
Z[37,31] 6
Z[37,35] 0
Z[37,36] 0
Z[37,76] 0
Z[37,79] 0
Z[37,82] 0
Z[38,32] 0
Z[38,33] 1
Z[39,80] 0
Z[39,83] 0
Z[40,79] 0
Z[40,84] 0
Z[40,86] 0
Z[42,88] 0
Z[45,47] 0
Z[45,49] 0
Z[46,47] 0
Z[46,48] 0
Z[47,6] 120
Z[47,45] 0
Z[47,46] 0
Z[47,48] 120
Z[48,4] 0
Z[48,46] 0
Z[48,47] 0
Z[49,45] 0
Z[49,51] 0
Z[49,56] 0
Z[50,3] 0
Z[50,55] 0
Z[51,2] 120
Z[51,49] 0
Z[53,54] 0
Z[54,5] 0
Z[54,53] 120
Z[55,3] 120
Z[55,50] 2
Z[55,60] 0
Z[56,6] 0
Z[56,49] 0
Z[56,63] 0
Z[57,7] 0
Z[57,58] 0
Z[58,7] 0
Z[58,57] 0
Z[58,59] 0
Z[58,64] 0
Z[59,58] 0
Z[59,64] 0
Z[60,3] 0
Z[60,8] 0
Z[60,55] 0
Z[60,65] 0
Z[60,66] 0
Z[60,68] 0
Z[62,65] 0
Z[62,67] 0
Z[62,72] 0
Z[63,12] 120
Z[63,56] 120
Z[63,64] 0
Z[64,17] 0
Z[64,58] 0
Z[64,59] 0
Z[64,63] 120
Z[65,60] 0
Z[65,62] 0
Z[65,67] 0
Z[65,68] 0
Z[66,8] 0
Z[66,60] 0
Z[67,62] 0
Z[67,65] 0
Z[68,8] 0
Z[68,60] 0
Z[68,65] 0
Z[70,71] 120
Z[70,72] 120
Z[71,70] 0
Z[71,96] 0
Z[72,62] 120
Z[72,70] 0
Z[73,12] 0
Z[73,18] 120
Z[73,75] 120
Z[74,91] 0
Z[75,15] 0
Z[75,18] 0
Z[75,23] 0
Z[75,27] 0
Z[75,73] 0
Z[76,16] 0
Z[76,20] 0
Z[76,29] 0
Z[76,31] 0
Z[76,36] 0
Z[76,37] 0
Z[76,77] 0
Z[76,78] 0
Z[77,25] 0
Z[77,76] 0
Z[77,78] 1
Z[78,25] 0
Z[78,36] 0
Z[78,76] 0
Z[78,77] 0
Z[78,79] 2
Z[79,36] 0
Z[79,37] 5
Z[79,40] 120
Z[79,78] 0
Z[79,81] 0
Z[79,82] 0
Z[79,84] 0
Z[79,86] 0
Z[80,39] 0
Z[80,83] 0
Z[80,98] 0
Z[81,79] 2
Z[81,84] 0
Z[81,86] 0
Z[82,33] 0
Z[82,35] 0
Z[82,37] 0
Z[82,79] 0
Z[83,39] 0
Z[83,80] 0
Z[84,40] 0
Z[84,79] 0
Z[84,81] 0
Z[84,86] 0
Z[85,87] 0
Z[86,40] 0
Z[86,79] 0
Z[86,81] 1
Z[86,84] 0
Z[86,88] 120
Z[87,85] 120
Z[88,42] 120
Z[88,86] 0
Z[89,90] 0
Z[90,89] 120
Z[90,100] 120
Z[91,34] 120
Z[91,74] 120
Z[92,93] 120
Z[92,94] 120
Z[93,92] 0
Z[94,92] 0
Z[96,71] 0
Z[96,98] 0
Z[97,99] 0
Z[98,80] 0
Z[98,96] 0
Z[98,99] 0
Z[99,97] 120
Z[99,98] 120
Z[100,90] 0
W[1] 0
W[2] 120
W[3] 120
W[4] 0
W[5] 0
W[6] 120
W[7] 0
W[8] 0
W[9] 0
W[10] 240
W[11] 0
W[12] 120
W[13] 120
W[14] 0
W[15] 0
W[16] 0
W[17] 0
W[18] 120
W[19] 1
W[20] 0
W[21] 120
W[22] 0
W[23] 2
W[24] 0
W[25] 0
W[26] 3
W[27] 4
W[28] 6
W[29] 0
W[30] 0
W[31] 16
W[32] 0
W[33] 1
W[34] 120
W[35] 0
W[36] 0
W[37] 5
W[38] 0
W[39] 0
W[40] 120
W[41] 0
W[42] 120
W[43] 0
W[44] 0
W[45] 0
W[46] 0
W[47] 120
W[48] 120
W[49] 0
W[50] 2
W[51] 0
W[52] 0
W[53] 120
W[54] 0
W[55] 120
W[56] 120
W[57] 0
W[58] 0
W[59] 0
W[60] 120
W[61] 0
W[62] 120
W[63] 120
W[64] 0
W[65] 0
W[66] 120
W[67] 0
W[68] 0
W[69] 0
W[70] 0
W[71] 120
W[72] 120
W[73] 120
W[74] 120
W[75] 120
W[76] 0
W[77] 0
W[78] 1
W[79] 4
W[80] 0
W[81] 1
W[82] 119
W[83] 0
W[84] 0
W[85] 120
W[86] 0
W[87] 0
W[88] 120
W[89] 120
W[90] 0
W[91] 0
W[92] 0
W[93] 120
W[94] 120
W[95] 0
W[96] 0
W[97] 120
W[98] 120
W[99] 0
W[100] 120
W[101] 0
W[102] 0
W[103] 0
W[104] 0
W[105] 0
W[106] 0
W[107] 0
W[108] 0
W[109] 0
W[110] 0
W[111] 0
W[112] 0
W[113] 0
W[114] 0
W[115] 0
W[116] 0
W[117] 0
W[118] 0
W[119] 0
W[120] 0
